SDVRP instances/custom_instances/p01_16_splitx10_0.vrp
NAME:p01_16_splitx10_
BEST_KNOWN: 0
COMMENT: 0
DIMENSION: 249
CAPACITY: 1600
EDGE_WEIGHT_FORMAT: FUNCTION
EDGE_WEIGHT_TYPE: EXACT_2D
NODE_COORD_SECTION
1 0.00000 0.00000
2 -48 -34
3 -48 -34
4 -48 -34
5 -48 -34
6 24 44
7 24 44
8 24 44
9 24 44
10 24 44
11 24 44
12 39 -34
13 39 -34
14 39 -34
15 39 -34
16 -10 -25
17 -10 -25
18 -10 -25
19 33 0
20 33 0
21 33 0
22 33 0
23 33 0
24 -3 38
25 -3 38
26 -3 38
27 -3 38
28 -3 38
29 -3 38
30 -21 -30
31 -21 -30
32 -21 -30
33 -21 -30
34 -9 8
35 -9 8
36 -9 8
37 -9 8
38 -9 8
39 -9 8
40 29 22
41 29 22
42 29 22
43 29 22
44 29 22
45 29 22
46 29 22
47 32 -13
48 32 -13
49 32 -13
50 32 -13
51 32 -13
52 32 -13
53 18 -8
54 18 -8
55 18 -8
56 31 1
57 31 1
58 31 1
59 -13 -39
60 -13 -39
61 -13 -39
62 -13 -39
63 -20 -36
64 -20 -36
65 -20 -36
66 34 -1
67 34 -1
68 34 -1
69 -43 9
70 -43 9
71 -43 9
72 -43 9
73 -43 9
74 -43 9
75 -43 9
76 -43 9
77 -16 27
78 -16 27
79 -16 27
80 -28 16
81 -28 16
82 -28 16
83 -28 16
84 -28 16
85 -28 16
86 -28 16
87 34 9
88 34 9
89 34 9
90 8 -24
91 8 -24
92 8 -24
93 -24 -4
94 -24 -4
95 -24 -4
96 -46 -15
97 -46 -15
98 -46 -15
99 -46 -15
100 -46 -15
101 -46 -15
102 37 26
103 37 26
104 37 26
105 37 26
106 37 26
107 37 26
108 -6 15
109 -6 15
110 -6 15
111 -6 15
112 -6 15
113 1 29
114 1 29
115 1 29
116 1 29
117 1 29
118 1 29
119 1 -47
120 1 -47
121 1 -47
122 1 -47
123 1 -47
124 -23 -40
125 -23 -40
126 -23 -40
127 -23 -40
128 29 -4
129 29 -4
130 29 -4
131 29 -4
132 29 -4
133 29 -4
134 29 -4
135 -1 44
136 -1 44
137 -1 44
138 -1 44
139 -1 44
140 -1 44
141 -1 44
142 22 42
143 22 42
144 22 42
145 22 42
146 22 42
147 -45 48
148 -45 48
149 -45 48
150 -45 48
151 -45 48
152 -45 48
153 -25 -38
154 -25 -38
155 -25 -38
156 -25 -38
157 -25 -38
158 46 -41
159 46 -41
160 46 -41
161 46 -41
162 46 -41
163 27 -37
164 27 -37
165 27 -37
166 27 -37
167 27 -37
168 27 -37
169 26 12
170 26 12
171 26 12
172 26 12
173 -44 48
174 -44 48
175 -44 48
176 -8 -22
177 -8 -22
178 -8 -22
179 -8 -22
180 -8 -22
181 -8 -22
182 -8 -22
183 23 -28
184 23 -28
185 23 -28
186 23 -28
187 23 -28
188 41 -39
189 41 -39
190 41 -39
191 41 -39
192 41 -39
193 41 -39
194 -3 -40
195 -3 -40
196 -3 -40
197 20 48
198 20 48
199 20 48
200 44 -21
201 44 -21
202 44 -21
203 41 -29
204 41 -29
205 41 -29
206 41 -29
207 41 -29
208 41 -29
209 41 -29
210 -47 -14
211 -47 -14
212 -47 -14
213 -47 -14
214 -47 -14
215 38 -38
216 38 -38
217 38 -38
218 38 -38
219 38 -38
220 38 -38
221 1 -39
222 1 -39
223 1 -39
224 1 -39
225 46 -44
226 46 -44
227 46 -44
228 46 -44
229 46 -44
230 46 -44
231 46 -44
232 -22 41
233 -22 41
234 -22 41
235 -22 41
236 -22 41
237 -22 41
238 -11 -47
239 -11 -47
240 -11 -47
241 -11 -47
242 -11 -47
243 -11 -47
244 27 -27
245 27 -27
246 27 -27
247 27 -27
248 27 -27
249 27 -27
DEMAND_SECTION
1 0
2 320
3 160
4 80
5 10
6 320
7 80
8 16
9 16
10 16
11 12
12 320
13 320
14 16
15 14
16 320
17 160
18 10
19 320
20 16
21 16
22 16
23 12
24 320
25 80
26 16
27 16
28 16
29 12
30 320
31 80
32 16
33 4
34 320
35 160
36 16
37 16
38 16
39 2
40 320
41 80
42 16
43 16
44 16
45 16
46 6
47 320
48 160
49 16
50 16
51 16
52 12
53 320
54 320
55 80
56 320
57 320
58 10
59 160
60 80
61 16
62 4
63 320
64 160
65 10
66 320
67 320
68 160
69 320
70 160
71 80
72 16
73 16
74 16
75 16
76 6
77 320
78 160
79 10
80 320
81 160
82 80
83 16
84 16
85 16
86 2
87 160
88 80
89 10
90 320
91 160
92 80
93 320
94 16
95 14
96 160
97 80
98 16
99 16
100 16
101 12
102 320
103 320
104 16
105 16
106 16
107 12
108 320
109 16
110 16
111 16
112 12
113 320
114 160
115 80
116 16
117 16
118 8
119 320
120 80
121 16
122 16
123 8
124 320
125 320
126 16
127 4
128 320
129 320
130 80
131 16
132 16
133 16
134 2
135 320
136 320
137 80
138 16
139 16
140 16
141 12
142 320
143 16
144 16
145 16
146 12
147 320
148 16
149 16
150 16
151 16
152 6
153 320
154 160
155 80
156 16
157 4
158 320
159 80
160 16
161 16
162 8
163 320
164 160
165 80
166 16
167 16
168 8
169 320
170 160
171 16
172 4
173 320
174 160
175 80
176 320
177 80
178 16
179 16
180 16
181 16
182 6
183 320
184 320
185 80
186 16
187 4
188 320
189 160
190 16
191 16
192 16
193 12
194 320
195 320
196 80
197 320
198 320
199 160
200 320
201 160
202 80
203 320
204 160
205 16
206 16
207 16
208 16
209 6
210 320
211 320
212 80
213 16
214 4
215 320
216 320
217 80
218 16
219 16
220 8
221 320
222 320
223 16
224 4
225 320
226 320
227 80
228 16
229 16
230 16
231 12
232 320
233 160
234 80
235 16
236 16
237 8
238 320
239 160
240 16
241 16
242 16
243 2
244 160
245 80
246 16
247 16
248 16
249 2
DEPOT_SECTION
1
-1
EOF