SDVRP instances/custom_instances/p01_16_splitx10_0.sol
248 -3 1 4 2 155 153 152 154 156 178 176 175 179 181 -6 10 8 7 9 5 198 197 196 113 114 -12 11 13 14 192 191 188 187 215 216 218 -17 15 16 194 195 193 221 223 222 -18 19 22 21 20 65 67 66 132 -24 23 27 26 28 25 139 138 135 137 134 136 140 115 117 112 116 -32 30 29 31 124 125 123 126 63 62 64 -36 37 38 34 33 35 76 78 77 109 111 108 110 107 -39 42 41 45 43 40 44 103 105 101 104 106 102 141 145 143 142 144 -52 46 51 49 47 48 129 127 131 130 133 128 -54 53 50 199 200 201 202 203 208 206 204 205 207 247 246 -57 55 56 88 86 87 171 168 169 170 -71 69 73 75 68 70 72 74 85 82 79 80 83 81 84 -89 90 91 -93 94 92 211 210 213 212 209 96 98 100 99 95 97 -149 147 150 146 151 148 174 173 172 236 232 231 233 234 235 -177 180 60 59 61 58 239 240 241 237 242 238 122 121 120 118 119 220 -186 185 182 183 184 163 164 166 165 167 162 248 244 245 243 -189 190 158 159 157 160 161 227 224 230 228 229 226 225 214 217 219 0 





OBJ=
1841.335
BEST_KNOWN=
0.000